NAME : cgl_73.6148.tour
COMMENT : Length = 6148
COMMENT : Found by LKH-3 [Keld Helsgaun] Thu Jun 26 21:26:49 2025
TYPE : TOUR
DIMENSION : 74
TOUR_SECTION
67
64
65
66
62
60
68
69
70
71
23
74
21
22
3
2
4
7
8
6
5
19
17
15
18
16
20
14
13
10
9
12
11
1
25
24
72
26
73
31
30
29
27
28
57
56
42
41
58
36
34
35
33
39
32
37
38
40
46
44
45
43
55
50
49
48
51
47
52
53
54
59
61
63
-1
EOF
